36 34 195 112 50 49 104 166 164 119 51 149 106 86 114 189 180 161 93 78 58 81 173 82 5 181 24 196 98 32 193 56 96 156 59 192 88 35 100 155 57 141 11 132 17 4 90 38 52 115 3 45 179 99 25 20 76 187 139 60 186 172 69 197 75 102 147 55 27 122 80 169 178 15 144 2 126 163 92 68 129 125 194 62 72 140 91 188 42 84 130 46 47 108 30 105 94 113 157 53 31 1 39 21 152 97 138 10 6 158 16 29 177 33 136 165 190 150 191 41 48 0 170 89 137 23 148 64 160 95 128 198 175 174 26 77 151 13 159 83 111 40 66 110 74 7 142 85 71 63 127 134 79 123 37 67 107 184 103 176 168 120 167 146 118 43 101 162 116 143 135 9 185 199 22 124 73 131 28 87 154 18 12 145 44 109 171 65 183 14 70 19 182 153 133 121 8 117 54 61